
--- Job magic.gms Start 03/21/16 13:39:03 WEX-WEI 24.0.2 x86_64/MS Windows     
GAMS Rev 240  Copyright (C) 1987-2013 GAMS Development. All rights reserved
Licensee: Energy Systems                                 W120511:1343CP-WIN
          VTT Energy                                                 DC1884
--- Starting compilation
--- magic.gms(68) 3 Mb
--- GDXin=C:\data\GIT\TITAN\models\magic\input/data.gdx
--- magic.gms(76) 3 Mb
--- .input/changes.inc(1) 3 Mb
--- magic.gms(177) 3 Mb
--- Starting execution: elapsed 0:00:00.003
--- magic.gms(144) 4 Mb
--- Generating LP model william
--- magic.gms(147) 4 Mb
---   74 rows  49 columns  223 non-zeroes
--- Executing CPLEX: elapsed 0:00:00.011

IBM ILOG CPLEX   Feb 14, 2013 24.0.2 WEX 38380.38394 WEI x86_64/MS Windows    
Cplex 12.5.0.0

Reading data...
Starting Cplex...
Tried aggregator 1 time.
LP Presolve eliminated 1 rows and 1 columns.
Reduced LP has 73 rows, 48 columns, and 174 nonzeros.
Presolve time = 0.00 sec. (0.03 ticks)

Iteration log . . .
Iteration:     1   Dual infeasibility =       4399799.999998
Iteration:    37   Dual objective     =       8719500.000000
LP status(1): optimal
Cplex Time: 0.00sec (det. 0.22 ticks)

Optimal solution found.
Objective :    24146205.555556

--- Restarting execution
--- magic.gms(147) 2 Mb
--- Reading solution for model william
--- Executing after solve: elapsed 0:00:00.152
--- magic.gms(163) 3 Mb
*** Status: Normal completion
--- Job magic.gms Stop 03/21/16 13:39:03 elapsed 0:00:00.155
